c Result of efficient AIG-to-CNF conversion using package CNF
p cnf 289 1107
-2 3 183 0
-2 -3 -183 0
2 -3 183 0
2 3 -183 0
-3 -4 -174 0
-3 4 174 0
3 4 -174 0
3 -4 174 0
-4 -5 -155 0
-4 5 155 0
4 5 -155 0
4 -5 155 0
-5 -6 -133 0
-5 6 133 0
5 6 -133 0
5 -6 133 0
-6 -7 -106 0
-6 7 106 0
6 7 -106 0
6 -7 106 0
-7 8 83 0
-7 -8 -83 0
7 -8 83 0
7 8 -83 0
-8 9 80 0
-8 -9 -80 0
8 -9 80 0
8 9 -80 0
-9 10 56 0
-9 -10 -56 0
9 -10 56 0
9 10 -56 0
-10 11 44 0
-10 -11 -44 0
10 -11 44 0
10 11 -44 0
-11 12 30 0
-11 -12 -30 0
11 -12 30 0
11 12 -30 0
-12 13 25 0
-12 -13 -25 0
12 -13 25 0
12 13 -25 0
-13 14 19 0
-13 -14 -19 0
13 -14 19 0
13 14 -19 0
-14 -15 -18 0
-14 15 18 0
14 15 -18 0
14 -15 18 0
-15 -16 -17 0
-15 16 17 0
15 16 -17 0
15 -16 17 0
16 -276 -277 0
-16 276 0
-16 277 0
17 -278 -287 0
-17 278 0
-17 287 0
18 -268 -281 0
-18 268 0
-18 281 0
-19 20 21 0
-19 20 22 0
19 -20 0
19 -21 -22 0
20 -268 -277 -278 -287 0
-20 287 0
-20 268 0
-20 278 0
-20 277 0
21 -281 -283 0
-21 281 0
-21 283 0
-22 -23 -24 0
-22 23 24 0
22 23 -24 0
22 -23 24 0
23 -277 -287 0
-23 277 0
-23 287 0
24 -268 -278 0
-24 268 0
-24 278 0
-25 -26 -29 0
-25 26 29 0
25 26 -29 0
25 -26 29 0
-26 -27 -28 0
-26 27 28 0
26 27 -28 0
26 -27 28 0
27 -283 -284 0
-27 283 0
-27 284 0
28 -270 -279 0
-28 270 0
-28 279 0
29 -267 -285 0
-29 267 0
-29 285 0
-30 32 38 0
-30 31 43 0
-30 31 38 0
-30 32 43 0
30 -38 -43 0
30 -31 -32 0
-31 21 22 0
-31 -21 -22 0
31 -21 22 0
31 21 -22 0
-32 33 34 0
-32 33 35 0
32 -33 0
32 -34 -35 0
33 -268 -277 -278 -283 0
-33 283 0
-33 268 0
-33 278 0
-33 277 0
34 -279 -281 0
-34 279 0
-34 281 0
-35 -36 -37 0
-35 36 37 0
35 36 -37 0
35 -36 37 0
36 -268 -277 0
-36 268 0
-36 277 0
37 -278 -283 0
-37 278 0
-37 283 0
-38 -39 -42 0
-38 39 42 0
38 39 -42 0
38 -39 42 0
-39 -40 -41 0
-39 40 41 0
39 40 -41 0
39 -40 41 0
40 -279 -284 0
-40 279 0
-40 284 0
41 -270 -285 0
-41 270 0
-41 285 0
42 -267 -286 0
-42 267 0
-42 286 0
-43 31 32 0
-43 -31 -32 0
43 -31 32 0
43 31 -32 0
-44 45 52 0
-44 -45 -52 0
44 -45 52 0
44 45 -52 0
-45 46 47 0
-45 -46 -47 0
45 -46 47 0
45 46 -47 0
-46 40 42 0
-46 41 42 0
-46 40 41 0
46 -40 -41 0
46 -41 -42 0
46 -40 -42 0
-47 -48 -51 0
-47 48 51 0
47 48 -51 0
47 -48 51 0
-48 -49 -50 0
-48 49 50 0
48 49 -50 0
48 -49 50 0
49 -282 -286 0
-49 282 0
-49 286 0
50 -275 -280 0
-50 275 0
-50 280 0
51 -273 -274 0
-51 273 0
-51 274 0
-52 53 55 0
-52 54 55 0
-52 53 54 0
52 -53 -54 0
52 -54 -55 0
52 -53 -55 0
53 -280 -282 0
-53 280 0
-53 282 0
54 -274 -275 0
-54 274 0
-54 275 0
55 -269 -273 0
-55 269 0
-55 273 0
-56 57 58 0
-56 58 72 0
-56 57 72 0
56 -57 -72 0
56 -58 -72 0
56 -57 -58 0
-57 38 43 0
-57 -38 -43 0
57 -38 43 0
57 38 -43 0
-58 60 66 0
-58 59 71 0
-58 59 66 0
-58 60 71 0
58 -66 -71 0
58 -59 -60 0
-59 34 35 0
-59 -34 -35 0
59 -34 35 0
59 34 -35 0
-60 61 62 0
-60 61 63 0
60 -61 0
60 -62 -63 0
61 -277 -278 -279 -283 0
-61 283 0
-61 277 0
-61 279 0
-61 278 0
62 -281 -285 0
-62 281 0
-62 285 0
-63 -64 -65 0
-63 64 65 0
63 64 -65 0
63 -64 65 0
64 -277 -283 0
-64 277 0
-64 283 0
65 -278 -279 0
-65 278 0
-65 279 0
-66 -67 -70 0
-66 67 70 0
66 67 -70 0
66 -67 70 0
-67 -68 -69 0
-67 68 69 0
67 68 -69 0
67 -68 69 0
68 -284 -285 0
-68 284 0
-68 285 0
69 -270 -286 0
-69 270 0
-69 286 0
70 -267 -280 0
-70 267 0
-70 280 0
-71 59 60 0
-71 -59 -60 0
71 -59 60 0
71 59 -60 0
-72 -73 -77 0
-72 73 77 0
72 73 -77 0
72 -73 77 0
-73 74 75 0
-73 -74 -75 0
73 -74 75 0
73 74 -75 0
-74 68 70 0
-74 69 70 0
-74 68 69 0
74 -68 -69 0
74 -69 -70 0
74 -68 -70 0
-75 55 76 0
-75 -55 -76 0
75 -55 76 0
75 55 -76 0
-76 -53 -54 0
-76 53 54 0
76 53 -54 0
76 -53 54 0
77 -78 -79 0
-77 78 0
-77 79 0
78 -274 -282 0
-78 274 0
-78 282 0
79 -269 -275 0
-79 269 0
-79 275 0
-80 -81 -82 0
-80 81 82 0
80 81 -82 0
80 -81 82 0
-81 74 75 0
-81 75 77 0
-81 74 77 0
81 -75 -77 0
81 -74 -75 0
81 -74 -77 0
82 -269 -288 0
-82 269 0
-82 288 0
-83 84 86 0
-83 86 105 0
-83 84 105 0
83 -86 -105 0
83 -84 -86 0
83 -84 -105 0
-84 72 85 0
-84 -72 -85 0
84 -72 85 0
84 72 -85 0
-85 57 58 0
-85 -57 -58 0
85 -57 58 0
85 57 -58 0
-86 87 88 0
-86 88 101 0
-86 87 101 0
86 -87 -101 0
86 -88 -101 0
86 -87 -88 0
-87 66 71 0
-87 -66 -71 0
87 -66 71 0
87 66 -71 0
-88 89 90 0
-88 90 96 0
-88 89 96 0
88 -89 -96 0
88 -90 -96 0
88 -89 -90 0
-89 62 63 0
-89 -62 -63 0
89 -62 63 0
89 62 -63 0
-90 91 92 0
-90 91 93 0
90 -91 0
90 -92 -93 0
91 -277 -278 -279 -285 0
-91 285 0
-91 277 0
-91 279 0
-91 278 0
92 -281 -286 0
-92 281 0
-92 286 0
-93 -94 -95 0
-93 94 95 0
93 94 -95 0
93 -94 95 0
94 -277 -279 0
-94 277 0
-94 279 0
95 -278 -285 0
-95 278 0
-95 285 0
-96 -97 -100 0
-96 97 100 0
96 97 -100 0
96 -97 100 0
-97 -98 -99 0
-97 98 99 0
97 98 -99 0
97 -98 99 0
98 -284 -286 0
-98 284 0
-98 286 0
99 -270 -280 0
-99 270 0
-99 280 0
100 -267 -274 0
-100 267 0
-100 274 0
-101 102 103 0
-101 -102 -103 0
101 -102 103 0
101 102 -103 0
-102 -78 -79 0
-102 78 79 0
102 78 -79 0
102 -78 79 0
-103 97 104 0
-103 100 104 0
103 -104 0
103 -97 -100 0
104 -98 -99 0
-104 98 0
-104 99 0
105 -102 -103 0
-105 102 0
-105 103 0
106 -107 -109 0
-106 107 0
-106 109 0
-107 105 108 0
-107 -105 -108 0
107 -105 108 0
107 105 -108 0
-108 84 86 0
-108 -84 -86 0
108 -84 86 0
108 84 -86 0
-109 110 112 0
-109 112 132 0
-109 110 132 0
109 -112 -132 0
109 -110 -112 0
109 -110 -132 0
-110 101 111 0
-110 -101 -111 0
110 -101 111 0
110 101 -111 0
-111 87 88 0
-111 -87 -88 0
111 -87 88 0
111 87 -88 0
-112 113 115 0
-112 115 129 0
-112 113 129 0
112 -113 -129 0
112 -115 -129 0
112 -113 -115 0
-113 96 114 0
-113 -96 -114 0
113 -96 114 0
113 96 -114 0
-114 89 90 0
-114 -89 -90 0
114 -89 90 0
114 89 -90 0
-115 117 123 0
-115 116 128 0
-115 116 123 0
-115 117 128 0
115 -123 -128 0
115 -116 -117 0
-116 92 93 0
-116 -92 -93 0
116 -92 93 0
116 92 -93 0
-117 118 119 0
-117 118 120 0
117 -118 0
117 -119 -120 0
118 -277 -278 -285 -286 0
-118 286 0
-118 277 0
-118 285 0
-118 278 0
119 -280 -281 0
-119 280 0
-119 281 0
-120 -121 -122 0
-120 121 122 0
120 121 -122 0
120 -121 122 0
121 -277 -285 0
-121 277 0
-121 285 0
122 -278 -286 0
-122 278 0
-122 286 0
-123 -124 -127 0
-123 124 127 0
123 124 -127 0
123 -124 127 0
-124 -125 -126 0
-124 125 126 0
124 125 -126 0
124 -125 126 0
125 -280 -284 0
-125 280 0
-125 284 0
126 -270 -274 0
-126 270 0
-126 274 0
127 -267 -269 0
-127 267 0
-127 269 0
-128 116 117 0
-128 -116 -117 0
128 -116 117 0
128 116 -117 0
-129 130 131 0
-129 -130 -131 0
129 -130 131 0
129 130 -131 0
130 -269 -282 0
-130 269 0
-130 282 0
-131 125 127 0
-131 126 127 0
-131 125 126 0
131 -125 -126 0
131 -126 -127 0
131 -125 -127 0
132 -130 -131 0
-132 130 0
-132 131 0
133 -134 -135 0
-133 134 0
-133 135 0
-134 107 109 0
-134 -107 -109 0
134 -107 109 0
134 107 -109 0
135 -136 -138 0
-135 136 0
-135 138 0
-136 132 137 0
-136 -132 -137 0
136 -132 137 0
136 132 -137 0
-137 110 112 0
-137 -110 -112 0
137 -110 112 0
137 110 -112 0
138 -139 -141 0
-138 139 0
-138 141 0
-139 129 140 0
-139 -129 -140 0
139 -129 140 0
139 129 -140 0
-140 113 115 0
-140 -113 -115 0
140 -113 115 0
140 113 -115 0
-141 142 143 0
-141 143 154 0
-141 142 154 0
141 -143 -154 0
141 -142 -143 0
141 -142 -154 0
-142 123 128 0
-142 -123 -128 0
142 -123 128 0
142 123 -128 0
-143 144 145 0
-143 145 151 0
-143 144 151 0
143 -144 -151 0
143 -145 -151 0
143 -144 -145 0
-144 119 120 0
-144 -119 -120 0
144 -119 120 0
144 119 -120 0
-145 146 147 0
-145 146 148 0
145 -146 0
145 -147 -148 0
146 -277 -278 -280 -286 0
-146 286 0
-146 277 0
-146 280 0
-146 278 0
147 -274 -281 0
-147 274 0
-147 281 0
-148 -149 -150 0
-148 149 150 0
148 149 -150 0
148 -149 150 0
149 -277 -286 0
-149 277 0
-149 286 0
150 -278 -280 0
-150 278 0
-150 280 0
-151 -152 -153 0
-151 152 153 0
151 152 -153 0
151 -152 153 0
152 -274 -284 0
-152 274 0
-152 284 0
153 -269 -270 0
-153 269 0
-153 270 0
154 -152 -153 0
-154 152 0
-154 153 0
155 -156 -157 0
-155 156 0
-155 157 0
-156 -134 -135 0
-156 134 135 0
156 134 -135 0
156 -134 135 0
157 -158 -159 0
-157 158 0
-157 159 0
-158 -136 -138 0
-158 136 138 0
158 136 -138 0
158 -136 138 0
159 -160 -161 0
-159 160 0
-159 161 0
-160 139 141 0
-160 -139 -141 0
160 -139 141 0
160 139 -141 0
161 -162 -164 0
-161 162 0
-161 164 0
-162 154 163 0
-162 -154 -163 0
162 -154 163 0
162 154 -163 0
-163 142 143 0
-163 -142 -143 0
163 -142 143 0
163 142 -143 0
164 -165 -167 0
-164 165 0
-164 167 0
-165 151 166 0
-165 -151 -166 0
165 -151 166 0
165 151 -166 0
-166 144 145 0
-166 -144 -145 0
166 -144 145 0
166 144 -145 0
-167 168 169 0
-167 169 173 0
-167 168 173 0
167 -169 -173 0
167 -168 -169 0
167 -168 -173 0
-168 147 148 0
-168 -147 -148 0
168 -147 148 0
168 147 -148 0
-169 170 172 0
-169 171 172 0
-169 170 171 0
169 -170 -171 0
169 -171 -172 0
169 -170 -172 0
170 -277 -280 0
-170 277 0
-170 280 0
171 -274 -278 0
-171 274 0
-171 278 0
172 -269 -281 0
-172 269 0
-172 281 0
173 -269 -284 0
-173 269 0
-173 284 0
174 -158 159 -175 -176 0
174 158 -159 -175 -176 0
-174 175 0
-174 -158 -159 0
-174 176 0
-174 158 159 0
-175 -156 -157 0
-175 156 157 0
175 156 -157 0
175 -156 157 0
176 160 -161 -177 0
176 -160 161 -177 0
-176 177 0
-176 160 161 0
-176 -160 -161 0
177 -162 165 -167 -178 0
177 -162 -165 167 -178 0
-177 178 0
-177 165 167 0
-177 162 0
-177 -165 -167 0
178 173 -179 -180 -182 0
178 -173 179 -180 -182 0
-178 180 0
-178 173 179 0
-178 182 0
-178 -173 -179 0
-179 168 169 0
-179 -168 -169 0
179 -168 169 0
179 168 -169 0
-180 172 181 0
-180 -172 -181 0
180 -172 181 0
180 172 -181 0
-181 -170 -171 0
-181 170 171 0
181 170 -171 0
181 -170 171 0
182 -269 -274 -277 -278 0
-182 278 0
-182 269 0
-182 277 0
-182 274 0
-183 184 222 0
-183 -184 -222 0
183 -184 222 0
183 184 -222 0
-184 185 206 0
-184 -185 -206 0
184 -185 206 0
184 185 -206 0
-185 186 192 0
-185 192 198 0
-185 186 198 0
185 -186 -198 0
185 -192 -198 0
185 -186 -192 0
-186 187 190 0
-186 -187 -190 0
186 -187 190 0
186 187 -190 0
-187 188 189 0
-187 -188 -189 0
187 -188 189 0
187 188 -189 0
-188 34 79 0
-188 78 79 0
-188 34 78 0
188 -34 -78 0
188 -78 -79 0
188 -34 -79 0
-189 68 70 0
-189 69 70 0
-189 68 69 0
189 -68 -69 0
189 -69 -70 0
189 -68 -70 0
-190 54 191 0
-190 -54 -191 0
190 -54 191 0
190 54 -191 0
-191 -21 -55 0
-191 21 55 0
191 21 -55 0
191 -21 55 0
-192 193 195 0
-192 195 197 0
-192 193 197 0
192 -193 -197 0
192 -195 -197 0
192 -193 -195 0
-193 69 194 0
-193 -69 -194 0
193 -69 194 0
193 69 -194 0
-194 -68 -70 0
-194 68 70 0
194 68 -70 0
194 -68 70 0
-195 78 196 0
-195 -78 -196 0
195 -78 196 0
195 78 -196 0
-196 -34 -79 0
-196 34 79 0
196 34 -79 0
196 -34 79 0
-197 91 99 0
-197 98 99 0
-197 91 98 0
197 -91 -98 0
197 -98 -99 0
197 -91 -99 0
-198 199 204 0
-198 -199 -204 0
198 -199 204 0
198 199 -204 0
-199 200 202 0
-199 -200 -202 0
199 -200 202 0
199 200 -202 0
-200 40 201 0
-200 -40 -201 0
200 -40 201 0
200 40 -201 0
-201 -41 -53 0
-201 41 53 0
201 41 -53 0
201 -41 53 0
-202 22 203 0
-202 -22 -203 0
202 -22 203 0
202 22 -203 0
-203 -33 -42 0
-203 33 42 0
203 33 -42 0
203 -33 42 0
-204 35 205 0
-204 35 61 0
-204 61 205 0
204 -61 -205 0
204 -35 -205 0
204 -35 -61 0
-205 285 130 0
-205 281 100 0
-205 100 130 0
-205 285 100 0
-205 281 130 0
205 -100 -130 0
205 -281 -285 -130 0
205 -281 -285 -100 0
-206 207 214 0
-206 -207 -214 0
206 -207 214 0
206 207 -214 0
-207 208 213 0
-207 -208 -213 0
207 -208 213 0
207 208 -213 0
-208 209 212 0
-208 -209 -212 0
208 -209 212 0
208 209 -212 0
-209 25 210 0
-209 -25 -210 0
209 -25 210 0
209 25 -210 0
-210 51 211 0
-210 -51 -211 0
210 -51 211 0
210 51 -211 0
-211 -18 -82 0
-211 18 82 0
211 18 -82 0
211 -18 82 0
-212 20 48 0
-212 -20 -48 0
212 -20 48 0
212 20 -48 0
-213 200 202 0
-213 202 204 0
-213 200 204 0
213 -200 -204 0
213 -202 -204 0
213 -200 -202 0
-214 215 218 0
-214 -215 -218 0
214 -215 218 0
214 215 -218 0
-215 216 217 0
-215 -216 -217 0
215 -216 217 0
215 216 -217 0
-216 33 42 0
-216 22 33 0
-216 22 42 0
216 -22 -33 0
216 -33 -42 0
216 -22 -42 0
-217 188 189 0
-217 189 190 0
-217 188 190 0
217 -188 -190 0
217 -189 -190 0
217 -188 -189 0
-218 219 221 0
-218 -219 -221 0
218 -219 221 0
218 219 -221 0
-219 15 220 0
-219 -15 -220 0
219 -15 220 0
219 15 -220 0
-220 21 55 0
-220 54 55 0
-220 21 54 0
220 -21 -54 0
220 -54 -55 0
220 -21 -55 0
-221 40 53 0
-221 41 53 0
-221 40 41 0
221 -40 -41 0
221 -41 -53 0
221 -40 -53 0
-222 223 232 0
-222 232 234 0
-222 223 234 0
222 -223 -234 0
222 -232 -234 0
222 -223 -232 0
-223 224 226 0
-223 226 230 0
-223 224 230 0
223 -224 -230 0
223 -226 -230 0
223 -224 -226 0
-224 205 225 0
-224 -205 -225 0
224 -205 225 0
224 205 -225 0
-225 -35 -61 0
-225 35 61 0
225 35 -61 0
225 -35 61 0
-226 63 227 0
-226 227 228 0
-226 63 228 0
226 -63 -228 0
226 -227 -228 0
226 -63 -227 0
-227 92 127 0
-227 125 127 0
-227 92 125 0
227 -92 -125 0
227 -125 -127 0
227 -92 -127 0
-228 100 229 0
-228 -100 -229 0
228 -100 229 0
228 100 -229 0
-229 -62 -130 0
-229 62 130 0
229 62 -130 0
229 -62 130 0
-230 197 231 0
-230 -197 -231 0
230 -197 231 0
230 197 -231 0
-231 193 195 0
-231 -193 -195 0
231 -193 195 0
231 193 -195 0
-232 198 233 0
-232 -198 -233 0
232 -198 233 0
232 198 -233 0
-233 186 192 0
-233 -186 -192 0
233 -186 192 0
233 186 -192 0
-234 235 240 0
-234 240 242 0
-234 235 242 0
234 -235 -242 0
234 -240 -242 0
234 -235 -240 0
-235 236 237 0
-235 237 238 0
-235 236 238 0
235 -236 -238 0
235 -237 -238 0
235 -236 -237 0
-236 91 97 0
-236 -91 -97 0
236 -91 97 0
236 91 -97 0
-237 118 126 0
-237 93 118 0
-237 93 126 0
237 -93 -118 0
237 -118 -126 0
237 -93 -126 0
-238 228 239 0
-238 -228 -239 0
238 -228 239 0
238 228 -239 0
-239 63 227 0
-239 -63 -227 0
239 -63 227 0
239 63 -227 0
-240 230 241 0
-240 -230 -241 0
240 -230 241 0
240 230 -241 0
-241 224 226 0
-241 -224 -226 0
241 -224 226 0
241 224 -226 0
-242 243 249 0
-242 249 251 0
-242 243 251 0
242 -243 -251 0
242 -249 -251 0
242 -243 -249 0
-243 244 245 0
-243 245 247 0
-243 244 247 0
243 -244 -247 0
243 -245 -247 0
243 -244 -245 0
-244 284 153 0
-244 274 119 0
-244 119 153 0
-244 284 119 0
-244 274 153 0
244 -119 -153 0
244 -274 -284 -153 0
244 -274 -284 -119 0
-245 125 246 0
-245 -125 -246 0
245 -125 246 0
245 125 -246 0
-246 -92 -127 0
-246 92 127 0
246 92 -127 0
246 -92 127 0
-247 93 248 0
-247 -93 -248 0
247 -93 248 0
247 93 -248 0
-248 -118 -126 0
-248 118 126 0
248 118 -126 0
248 -118 126 0
-249 238 250 0
-249 -238 -250 0
249 -238 250 0
249 238 -250 0
-250 236 237 0
-250 -236 -237 0
250 -236 237 0
250 236 -237 0
-251 252 255 0
-251 255 257 0
-251 252 257 0
251 -252 -257 0
251 -255 -257 0
251 -252 -255 0
-252 120 253 0
-252 120 146 0
-252 146 253 0
252 -146 -253 0
252 -120 -253 0
252 -120 -146 0
-253 152 254 0
-253 -152 -254 0
253 -152 254 0
253 152 -254 0
-254 -119 -153 0
-254 119 153 0
254 119 -153 0
254 -119 153 0
-255 247 256 0
-255 -247 -256 0
255 -247 256 0
255 247 -256 0
-256 244 245 0
-256 -244 -245 0
256 -244 245 0
256 244 -245 0
-257 258 260 0
-257 260 262 0
-257 258 262 0
257 -258 -262 0
257 -260 -262 0
257 -258 -260 0
-258 281 259 0
-258 274 173 0
-258 173 259 0
-258 281 173 0
-258 274 259 0
258 -173 -259 0
258 -274 -281 -259 0
258 -274 -281 -173 0
259 -171 -172 0
-259 171 0
-259 172 0
-260 253 261 0
-260 -253 -261 0
260 -253 261 0
260 253 -261 0
-261 -120 -146 0
-261 120 146 0
261 120 -146 0
261 -120 146 0
-262 148 263 0
-262 263 265 0
-262 148 265 0
262 -148 -265 0
262 -263 -265 0
262 -148 -263 0
-263 259 264 0
-263 -259 -264 0
263 -259 264 0
263 259 -264 0
-264 -147 -173 0
-264 147 173 0
264 147 -173 0
264 -147 173 0
-265 182 266 0
-265 170 182 0
-265 170 266 0
265 -170 -182 0
265 -182 -266 0
265 -170 -266 0
-266 -171 -172 0
-266 171 172 0
266 171 -172 0
266 -171 172 0
-289 0
2 0

